60
7
5
1
30 116
31 75
30 29
107 26
106 66
108 112
30 116
31 75
30 29
107 26
106 66
108 112
22 105
21 109
22 113
24 119
24 126
32 126
36 127
31 128
30 131
40 131
98 112
101 116
106 119
112 122
102 122
106 124
99 125
106 124
114 124
111 125
102 67
103 68
104 71
100 73
97 72
97 65
113 61
112 67
112 72
107 73
105 30
109 30
103 34
98 28
96 15
99 16
98 19
104 20
114 18
116 30
35 32
30 32
24 30
22 23
30 23
38 23
39 29
38 34
28 34
25 33
22 76
26 79
31 81
40 80
43 84
34 84
33 64
20 64
23 67
28 68
EOF